language Essence 1.3

letting course_load be
        function(1 --> 26, 2 --> 15, 3 --> 17, 4 --> 32, 5 --> 19, 6 --> 35, 7 --> 23, 8 --> 13, 9 --> 31, 10 --> 20,
                 11 --> 26, 12 --> 13, 13 --> 22, 14 --> 39, 15 --> 9, 16 --> 28, 17 --> 19, 18 --> 24, 19 --> 17,
                 20 --> 35, 21 --> 10, 22 --> 29, 23 --> 31, 24 --> 34, 25 --> 39, 26 --> 38, 27 --> 12, 28 --> 18,
                 29 --> 36, 30 --> 37, 31 --> 27, 32 --> 31, 33 --> 22, 34 --> 24, 35 --> 14, 36 --> 33, 37 --> 12,
                 38 --> 29, 39 --> 23, 40 --> 34, 41 --> 31, 42 --> 31, 43 --> 36, 44 --> 29, 45 --> 39, 46 --> 11,
                 47 --> 24, 48 --> 37, 49 --> 36, 50 --> 36)
letting courses_per_period_lb be 1
letting courses_per_period_ub be 23
letting load_per_period_lb be 5
letting load_per_period_ub be 47
letting n_courses be 50
letting n_periods be 49
letting prerequisite be
        relation((19, 1), (19, 2), (19, 3), (19, 6), (19, 10), (19, 11), (20, 1), (20, 2), (20, 4), (20, 5), (20, 7),
                 (20, 9), (20, 10), (20, 12), (21, 1), (21, 4), (21, 7), (21, 8), (21, 12), (22, 2), (22, 3), (22, 4),
                 (22, 7), (22, 8), (23, 1), (23, 2), (23, 8), (23, 10), (24, 2), (24, 5), (24, 6), (24, 9), (25, 1),
                 (25, 2), (25, 3), (25, 8), (25, 9), (25, 11), (26, 2), (26, 3), (26, 4), (26, 5), (26, 6), (26, 8),
                 (27, 1), (27, 4), (27, 7), (27, 8), (27, 9), (27, 10), (27, 11), (28, 3), (28, 5), (28, 7), (28, 9),
                 (28, 11), (29, 1), (29, 2), (29, 7), (29, 8), (29, 9), (29, 10), (29, 12), (30, 1), (30, 2), (30, 3),
                 (30, 4), (30, 6), (30, 10), (30, 11), (30, 12), (31, 1), (31, 4), (31, 5), (31, 6), (31, 8), (31, 9),
                 (32, 3), (32, 4), (32, 5), (32, 7), (32, 8), (32, 10), (32, 11), (32, 12), (33, 2), (33, 4), (33, 5),
                 (33, 8), (33, 9), (33, 11), (33, 12), (34, 4), (34, 10), (34, 11), (35, 5), (35, 6), (35, 7), (35, 9),
                 (35, 11))
$ Visualisation for prerequisite
$ 19  1
$ 19  2
$ 19  3
$ 19  6
$ 19 10
$ 19 11
$ 20  1
$ 20  2
$ 20  4
$ 20  5
$ 20  7
$ 20  9
$ 20 10
$ 20 12
$ 21  1
$ 21  4
$ 21  7
$ 21  8
$ 21 12
$ 22  2
$ 22  3
$ 22  4
$ 22  7
$ 22  8
$ 23  1
$ 23  2
$ 23  8
$ 23 10
$ 24  2
$ 24  5
$ 24  6
$ 24  9
$ 25  1
$ 25  2
$ 25  3
$ 25  8
$ 25  9
$ 25 11
$ 26  2
$ 26  3
$ 26  4
$ 26  5
$ 26  6
$ 26  8
$ 27  1
$ 27  4
$ 27  7
$ 27  8
$ 27  9
$ 27 10
$ 27 11
$ 28  3
$ 28  5
$ 28  7
$ 28  9
$ 28 11
$ 29  1
$ 29  2
$ 29  7
$ 29  8
$ 29  9
$ 29 10
$ 29 12
$ 30  1
$ 30  2
$ 30  3
$ 30  4
$ 30  6
$ 30 10
$ 30 11
$ 30 12
$ 31  1
$ 31  4
$ 31  5
$ 31  6
$ 31  8
$ 31  9
$ 32  3
$ 32  4
$ 32  5
$ 32  7
$ 32  8
$ 32 10
$ 32 11
$ 32 12
$ 33  2
$ 33  4
$ 33  5
$ 33  8
$ 33  9
$ 33 11
$ 33 12
$ 34  4
$ 34 10
$ 34 11
$ 35  5
$ 35  6
$ 35  7
$ 35  9
$ 35 11

